NAME: att48.tsp
TYPE: TSP
COMMENT: Solution
DIMENSION: 48
TOUR_SECTION
1
8
40
33
46
15
12
11
13
25
14
23
3
22
16
41
34
29
2
26
4
35
45
24
10
42
48
5
39
32
21
47
20
17
43
27
19
37
6
30
28
36
7
18
44
31
38
9
-1
EOF